25
15
10 14 16
23 10 3 9 2 8 11 20 24
23 0 17 6 22 7 1 14 16 15 4 11 8 3 19
17 24 14
21 6 22 11 24 19 9 1 3 20 4 15 16 23 13 8 0
18 16 0 22 1
23 13
10 15 4 16
23 3 7 14 21 11 24 22 2 6 4 17 9 1
22 23 15 10 0 5 20 21 6 14 24 4 17 11 8 16 1 9 19 7 3 13
10 19 24 1 4 14 11 21 2 15 5 0 22
10 23 14 24 13 0 20 15 11 16 12 7 9 5 3 19
23 16 8 11 5 17 0 3 18 9 21 19 22 13 14 10 20 4 1 24 2 12
4 16 20 21 2 8 14 13 5 6 3 10 18 15 19 1 7 9 17 23 24
1 21 17 0 2 23 18 4 6 20 16 5 12 15 14 9 13 7
